19 965
525 7 482 7 394 7 212 9 29 11 822 15 623 21
525 7 445 7 264 7 63 9 889 11 721 18
528 7 453 7 344 7 55 9 965 11 687 18
523 7 485 7 371 7 128 12
525 7 482 7 367 7 213 9 32 11 824 18
525 7 482 7 367 7 213 9 32 11 824 18
525 7 482 7 367 7 213 9 32 11 824 18
525 7 482 7 367 7 213 9 32 11 824 18
525 7 482 7 365 7 115 9 943 13
525 7 482 7 362 7 118 9 854 11 672 18
525 7 479 7 355 7 161 12
525 7 479 7 355 7 161 12
525 7 479 7 355 7 161 12
525 7 482 7 358 7 165 12
525 7 482 7 358 7 165 12
535 8 512 8 470 8 416 15 307 22
535 8 512 8 470 8 416 15 307 22
535 8 512 8 470 8 416 15 307 22
535 8 512 8 470 8 416 15 307 22
